76
10 70
11 28
12 17
12 38
15 14
15 5
15 56
16 19
17 64
20 30
21 36
21 45
21 48
22 22
22 53
26 13
26 29
26 59
27 24
29 39
30 20
30 50
30 60
31 76
33 34
33 44
35 16
35 51
35 60
36 26
36 6
38 33
40 20
40 37
40 40
40 60
40 66
41 46
43 26
44 13
45 35
45 42
47 66
48 21
50 15
50 30
50 4
50 40
50 50
50 70
51 42
52 26
54 10
54 38
55 20
55 34
55 45
55 50
55 57
55 65
57 72
59 5
6  25
60 15
62 24
62 35
62 48
62 57
64 4
65 27
66 14
66 8
67 41
7  43
70 64
9  56
